(declare-sort $$unsorted 0)
(declare-fun tptp.op ($$unsorted $$unsorted) $$unsorted)
(assert (forall ((X0 $$unsorted) (X1 $$unsorted) (X2 $$unsorted)) (= X0 (tptp.op (tptp.op X0 (tptp.op (tptp.op X1 X1) X2)) X1))))
(assert (not (forall ((X0 $$unsorted) (X1 $$unsorted) (X2 $$unsorted)) (= X0 (tptp.op (tptp.op X0 X1) (tptp.op (tptp.op X1 X1) X0))))))
(set-info :filename Equation2473_implies_Equation1657)
(check-sat-assuming ( true ))
